n = 25
Q1 = [0 25 15 13 40 35 49 12 8 35 13 12 16 32 45 35 23 47 12 50 39 7 46 30 44; 0 0 10 32 19 22 37 27 42 18 24 26 11 39 38 44 47 39 41 38 8 6 34 26 39; 0 0 0 13 48 40 10 11 25 20 19 40 31 22 24 18 45 28 38 24 5 6 47 19 11; 0 0 0 0 13 40 24 50 27 45 22 37 44 26 44 18 34 40 10 17 36 42 42 36 20; 0 0 0 0 0 30 11 27 43 48 5 21 34 44 42 37 42 38 34 47 11 30 29 19 20; 0 0 0 0 0 0 5 32 45 36 43 17 35 6 29 20 38 20 23 17 25 8 14 39 35; 0 0 0 0 0 0 0 37 49 29 20 8 44 19 34 42 12 28 6 8 27 12 38 36 44; 0 0 0 0 0 0 0 0 26 32 35 17 7 7 39 35 18 22 21 5 43 5 9 26 11; 0 0 0 0 0 0 0 0 0 12 24 19 34 48 48 26 14 36 32 47 38 13 39 48 9; 0 0 0 0 0 0 0 0 0 0 39 18 15 5 12 48 43 36 21 47 44 41 22 32 22; 0 0 0 0 0 0 0 0 0 0 0 25 37 49 15 11 40 47 18 47 36 36 17 10 50; 0 0 0 0 0 0 0 0 0 0 0 0 24 30 18 8 26 41 15 11 9 22 36 7 50; 0 0 0 0 0 0 0 0 0 0 0 0 0 37 8 16 25 21 22 49 20 21 23 26 39; 0 0 0 0 0 0 0 0 0 0 0 0 0 0 8 14 36 22 33 48 14 27 36 31 30; 0 0 0 0 0 0 0 0 0 0 0 0 0 0 0 8 32 40 27 23 36 24 43 48 43; 0 0 0 0 0 0 0 0 0 0 0 0 0 0 0 0 12 38 22 42 24 28 45 36 11; 0 0 0 0 0 0 0 0 0 0 0 0 0 0 0 0 0 23 37 43 39 15 5 50 50; 0 0 0 0 0 0 0 0 0 0 0 0 0 0 0 0 0 0 14 36 41 48 48 43 20; 0 0 0 0 0 0 0 0 0 0 0 0 0 0 0 0 0 0 0 34 19 19 27 15 11; 0 0 0 0 0 0 0 0 0 0 0 0 0 0 0 0 0 0 0 0 9 43 5 49 22; 0 0 0 0 0 0 0 0 0 0 0 0 0 0 0 0 0 0 0 0 0 24 46 7 34; 0 0 0 0 0 0 0 0 0 0 0 0 0 0 0 0 0 0 0 0 0 0 23 42 43; 0 0 0 0 0 0 0 0 0 0 0 0 0 0 0 0 0 0 0 0 0 0 0 16 42; 0 0 0 0 0 0 0 0 0 0 0 0 0 0 0 0 0 0 0 0 0 0 0 0 38; 0 0 0 0 0 0 0 0 0 0 0 0 0 0 0 0 0 0 0 0 0 0 0 0 0]
Q2=[0.0 7.0 50.0 38.0 9.0 11.0 0.0 42.0 50.0 2.0 45.0 39.0 47.0 18.0 1.0 5.0 34.0 2.0 44.0 0.0 1.0 48.0 1.0 8.0 0.0; 0.0 0.0 44.0 14.0 48.0 33.0 13.0 13.0 6.0 43.0 49.0 18.0 41.0 10.0 3.0 2.0 0.0 3.0 7.0 8.0 42.0 47.0 6.0 16.0 0.0; 0.0 0.0 0.0 46.0 0.0 10.0 50.0 44.0 0.0 49.0 47.0 10.0 13.0 31.0 46.0 48.0 4.0 9.0 7.0 29.0 49.0 48.0 3.0 39.0 41.0; 0.0 0.0 0.0 0.0 46.0 0.0 35.0 0.0 3.0 4.0 39.0 10.0 6.0 1.0 6.0 43.0 6.0 8.0 48.0 48.0 6.0 7.0 4.0 14.0 33.0; 0.0 0.0 0.0 0.0 0.0 12.0 41.0 2.0 7.0 0.0 47.0 50.0 9.0 6.0 4.0 4.0 2.0 7.0 6.0 2.0 42.0 8.0 1.0 48.0 44.0; 0.0 0.0 0.0 0.0 0.0 0.0 46.0 14.0 4.0 11.0 4.0 47.0 15.0 50.0 21.0 37.0 10.0 43.0 30.0 45.0 2.0 49.0 47.0 11.0 4.0; 0.0 0.0 0.0 0.0 0.0 0.0 0.0 2.0 0.0 10.0 41.0 47.0 4.0 42.0 8.0 8.0 45.0 21.0 46.0 43.0 15.0 38.0 9.0 2.0 0.0; 0.0 0.0 0.0 0.0 0.0 0.0 0.0 0.0 6.0 5.0 10.0 47.0 50.0 48.0 4.0 5.0 32.0 29.0 44.0 48.0 1.0 46.0 43.0 13.0 48.0; 0.0 0.0 0.0 0.0 0.0 0.0 0.0 0.0 0.0 46.0 42.0 50.0 7.0 2.0 2.0 12.0 39.0 3.0 2.0 3.0 10.0 43.0 0.0 1.0 50.0; 0.0 0.0 0.0 0.0 0.0 0.0 0.0 0.0 0.0 0.0 0.0 40.0 42.0 49.0 38.0 2.0 3.0 6.0 33.0 2.0 3.0 0.0 43.0 0.0 45.0; 0.0 0.0 0.0 0.0 0.0 0.0 0.0 0.0 0.0 0.0 0.0 6.0 12.0 0.0 35.0 46.0 4.0 0.0 45.0 0.0 8.0 11.0 47.0 50.0 0.0; 0.0 0.0 0.0 0.0 0.0 0.0 0.0 0.0 0.0 0.0 0.0 0.0 43.0 2.0 34.0 45.0 17.0 2.0 42.0 48.0 46.0 37.0 14.0 44.0 0.0; 0.0 0.0 0.0 0.0 0.0 0.0 0.0 0.0 0.0 0.0 0.0 0.0 0.0 5.0 45.0 42.0 13.0 33.0 31.0 1.0 40.0 49.0 42.0 1.0 0.0; 0.0 0.0 0.0 0.0 0.0 0.0 0.0 0.0 0.0 0.0 0.0 0.0 0.0 0.0 48.0 45.0 4.0 38.0 17.0 1.0 43.0 4.0 9.0 0.0 4.0; 0.0 0.0 0.0 0.0 0.0 0.0 0.0 0.0 0.0 0.0 0.0 0.0 0.0 0.0 0.0 46.0 14.0 0.0 9.0 41.0 1.0 46.0 5.0 1.0 0.0; 0.0 0.0 0.0 0.0 0.0 0.0 0.0 0.0 0.0 0.0 0.0 0.0 0.0 0.0 0.0 0.0 49.0 6.0 28.0 0.0 32.0 5.0 1.0 4.0 48.0; 0.0 0.0 0.0 0.0 0.0 0.0 0.0 0.0 0.0 0.0 0.0 0.0 0.0 0.0 0.0 0.0 0.0 37.0 1.0 2.0 8.0 45.0 49.0 0.0 0.0; 0.0 0.0 0.0 0.0 0.0 0.0 0.0 0.0 0.0 0.0 0.0 0.0 0.0 0.0 0.0 0.0 0.0 0.0 36.0 4.0 9.0 2.0 1.0 5.0 33.0; 0.0 0.0 0.0 0.0 0.0 0.0 0.0 0.0 0.0 0.0 0.0 0.0 0.0 0.0 0.0 0.0 0.0 0.0 0.0 5.0 50.0 50.0 8.0 35.0 45.0; 0.0 0.0 0.0 0.0 0.0 0.0 0.0 0.0 0.0 0.0 0.0 0.0 0.0 0.0 0.0 0.0 0.0 0.0 0.0 0.0 50.0 3.0 47.0 0.0 30.0; 0.0 0.0 0.0 0.0 0.0 0.0 0.0 0.0 0.0 0.0 0.0 0.0 0.0 0.0 0.0 0.0 0.0 0.0 0.0 0.0 0.0 43.0 1.0 46.0 2.0; 0.0 0.0 0.0 0.0 0.0 0.0 0.0 0.0 0.0 0.0 0.0 0.0 0.0 0.0 0.0 0.0 0.0 0.0 0.0 0.0 0.0 0.0 43.0 1.0 0.0; 0.0 0.0 0.0 0.0 0.0 0.0 0.0 0.0 0.0 0.0 0.0 0.0 0.0 0.0 0.0 0.0 0.0 0.0 0.0 0.0 0.0 0.0 0.0 50.0 8.0; 0.0 0.0 0.0 0.0 0.0 0.0 0.0 0.0 0.0 0.0 0.0 0.0 0.0 0.0 0.0 0.0 0.0 0.0 0.0 0.0 0.0 0.0 0.0 0.0 1.0; 0.0 0.0 0.0 0.0 0.0 0.0 0.0 0.0 0.0 0.0 0.0 0.0 0.0 0.0 0.0 0.0 0.0 0.0 0.0 0.0 0.0 0.0 0.0 0.0 0.0]
